&control
    calculation       = 'scf'
   restart_mode      = 'from_scratch'
    prefix            = 'Germanene'
    tstress           = .true.
    tprnfor           = .true.
    pseudo_dir        = './'
!   outdir            = 'tmp/'
    verbosity         = 'high'
    wf_collect        = .true.
!   max_seconds       =
!   tefield           = .true.
/
&system
    ibrav             = 4
    celldm(1)         = 7.643
!    celldm(2)         =
    celldm(3)         = 8
    nat               = 2
    ntyp              = 1
    ecutwfc           = 90
   ! ecutrho           =
    nbnd              = 32
!    occupations       = 'smearing'
!    smearing          = 'fermi-dirac'
!    degauss           = 0.00036749326
    noncolin          = .true.
    lspinorb          = .true.
!    nosym          = .true.
  !  edir             = 3
  !  eamp             = 0.00449

/
&electrons
    diagonalization   = 'david'
    conv_thr          = 1e-6
    mixing_mode       = 'plain'
    mixing_beta       = 0.7

 /
&ions
    ion_dynamics='bfgs',
    upscale=10
/
ATOMIC_SPECIES
Ge     72.64 Ge.rel-pbe-dn-kjpaw_psl.0.2.2.UPF

ATOMIC_POSITIONS {alat}
Ge       0.000000000   0.577350300   0.083971326
Ge       0.500000000   0.288675100  -0.083971326
K_POINTS {automatic}
12 12 1 0 0 0

